StudentsNr = 10;
InstructorsNr = 67;
DaysNr = 1;
SlotsPerDay = 15;
AvailabilitySlotsLenght = 5;
RoomNr = 2;
ProgrammNr = 2;
DegreeNr = 1;
RolesNr = 4;
CoursesNr = 9;
InstructorsProgramm = [{1}, {2}, {2}, {2}, {1}, {1}, {1}, {2}, {1, 2}, {2}, {1, 2}, {2}, {1}, {1}, {1}, {1}, {2}, {1}, {1}, {1, 2}, {1, 2}, {1, 2}, {1, 2}, {1}, {2}, {1}, {2}, {1, 2}, {1}, {1, 2}, {1}, {1, 2}, {2}, {1}, {2}, {1, 2}, {2}, {2}, {2}, {1, 2}, {1}, {1, 2}, {1}, {2}, {2}, {1}, {1}, {1}, {2}, {1}, {1, 2}, {1}, {1, 2}, {1}, {1}, {1}, {2}, {1, 2}, {1, 2}, {2}, {1}, {1}, {1}, {1, 2}, {2}, {2}, {1}];
InstructorRolesPerProgramm = [|{6, 7, 16, 18, 19, 20, 28, 29, 30, 32, 43, 47, 48, 50, 51, 52, 53, 58, 61, 62, 63, 64}, {5, 6, 11, 14, 16, 18, 19, 21, 22, 23, 32, 34, 36, 42, 43, 50, 53, 54, 58, 62}, {5, 7, 9, 21, 23, 30, 36, 41, 43, 48, 53, 54, 56, 61, 67}, {1, 7, 11, 18, 19, 23, 24, 28, 29, 32, 36, 52, 53, 56, 58, 63, 64, 67}|{4, 20, 28, 30, 32, 35, 37, 38, 39, 51, 53, 58, 60, 64}, {11, 12, 21, 22, 23, 25, 32, 33, 35, 36, 38, 39, 42, 44, 53, 57, 58, 60, 66}, {2, 9, 21, 23, 25, 30, 35, 36, 37, 39, 44, 53, 65}, {4, 11, 23, 28, 32, 33, 36, 37, 39, 53, 57, 58, 64}|];
InstructorsAvailability = [|1, 1, 1, |1, 1, 1, |0, 1, 1, |1, 1, 1, |0, 1, 1, |1, 1, 1, |1, 1, 1, |0, 1, 1, |0, 1, 1, |0, 0, 0, |0, 0, 0, |0, 1, 1, |1, 1, 1, |1, 1, 1, |0, 1, 1, |0, 1, 1, |0, 0, 0, |1, 1, 1, |1, 1, 1, |0, 0, 0, |1, 1, 1, |1, 1, 1, |1, 1, 1, |0, 0, 0, |1, 1, 1, |0, 0, 0, |0, 1, 1, |1, 1, 1, |1, 1, 0, |0, 1, 0, |1, 1, 1, |1, 1, 1, |1, 1, 1, |1, 0, 1, |1, 1, 1, |1, 1, 1, |0, 1, 1, |1, 1, 1, |0, 0, 1, |0, 1, 1, |1, 1, 0, |0, 1, 1, |1, 1, 1, |0, 1, 1, |1, 1, 1, |0, 1, 1, |0, 1, 1, |1, 1, 1, |1, 1, 1, |0, 1, 1, |0, 1, 1, |1, 1, 1, |1, 1, 1, |0, 1, 1, |0, 0, 1, |1, 0, 0, |0, 1, 1, |1, 1, 1, |0, 0, 0, |1, 1, 1, |0, 1, 1, |1, 1, 1, |0, 1, 1, |0, 0, 0, |0, 1, 1, |1, 1, 1, |1, 1, 1|];
StudentsProgramm = [1, 1, 2, 2, 1, 2, 2, 1, 2, 2];
StudentsDegree = [1, 1, 1, 1, 1, 1, 1, 1, 1, 1];
StudentsSupervisorId = [36, 6, 49, 57, 67, 12, 35, 1, 3, 4];
StudentsCourseIds = [{2, 8}, {3, 4}, {2, 4}, {7, 8}, {1, 2}, {1, 2}, {3, 8}, {5, 8}, {7, 9}, {3, 4}];
StudentsAvailability = [|0, 1, 1, |0, 1, 1, |0, 1, 1, |1, 1, 1, |0, 1, 1, |0, 1, 1, |1, 1, 1, |0, 1, 1, |0, 1, 1, |0, 1, 1|];
TheoryticalMinCard = [1, 0, 0, 1, 0, 0, 1, 1, 0, 0];
CoursesInstructorIds = [{1, 2, 5, 6, 7, 9, 10, 11, 12, 13, 16, 17, 19, 20, 23, 24, 25, 27, 28, 35, 37, 40, 41, 46, 47, 48, 49, 55, 56, 57, 59, 61, 62, 64, 67}, {4, 5, 26, 34, 35, 37, 47, 53, 57, 59, 61, 62, 64, 65}, {1, 2, 4, 8, 12, 13, 15, 16, 17, 21, 23, 24, 25, 29, 31, 33, 34, 35, 41, 43, 44, 46, 47, 48, 49, 50, 55, 56, 57, 58, 59, 61, 62, 63, 64, 66}, {1, 2, 3, 4, 8, 9, 12, 13, 14, 17, 18, 19, 20, 22, 24, 30, 34, 35, 39, 40, 41, 45, 46, 47, 49, 51, 52, 53, 55, 63, 66}, {2, 3, 6, 9, 17, 19, 23, 34, 35, 36, 38, 45, 47, 49, 52, 63, 64, 65}, {1, 3, 4, 5, 6, 9, 10, 11, 13, 14, 15, 19, 20, 21, 25, 29, 31, 35, 36, 37, 38, 41, 46, 47, 52, 55, 56, 58, 59, 62, 64, 65, 66, 67}, {1, 3, 4, 6, 7, 8, 9, 11, 12, 13, 14, 16, 18, 20, 21, 22, 24, 26, 28, 31, 32, 33, 35, 36, 37, 38, 40, 41, 42, 47, 48, 49, 50, 51, 53, 54, 55, 56, 58, 59, 62, 63, 67}, {3, 31}, {6, 12, 15, 16, 17, 21, 25, 28, 31, 35, 36, 45, 46, 62, 65, 67}];
RolesDemands = [10, 18, 1, 11];
RolesContinuity = [2, 3];
ExamLen = [2, 2, 2, 2, 2, 2, 2, 2, 2, 2];
LunchTsMinLen = 2;
LunchStarts = [6..9];
SupervisorAvailable = 0;
OptimalLunchLenght = [2, 3];
OptimalStartTs = [2, 1];
OptimalFinishTs = [2, 14];
MinimizeRooms = 400;
RolesSoftContinuity = [|1, 2, 3, 4|2, 4, 4, 1|];
SameDegreeInRoom = 20;
Mergeability = 1;
